c Reduced graph for miles250_2 generated by Cyril Grelier
p edge 51 191
e 1 2
e 1 13
e 1 24
e 1 25
e 1 27
e 1 29
e 1 30
e 1 31
e 1 34
e 1 38
e 1 45
e 1 46
e 1 48
e 1 49
e 2 13
e 2 15
e 2 17
e 2 24
e 2 30
e 2 31
e 2 34
e 2 35
e 2 38
e 2 46
e 2 49
e 2 50
e 3 14
e 3 18
e 3 21
e 3 36
e 3 40
e 3 43
e 3 51
e 4 7
e 4 14
e 4 26
e 4 42
e 5 11
e 6 41
e 8 17
e 8 41
e 8 50
e 9 10
e 12 17
e 12 21
e 12 24
e 12 28
e 12 32
e 12 39
e 12 43
e 12 44
e 12 47
e 12 50
e 13 25
e 13 27
e 13 30
e 13 31
e 13 34
e 13 38
e 13 46
e 13 48
e 14 18
e 14 21
e 14 26
e 14 36
e 14 42
e 14 51
e 15 34
e 15 35
e 15 38
e 15 49
e 15 50
e 16 20
e 17 24
e 17 28
e 17 34
e 17 35
e 17 38
e 17 41
e 17 44
e 17 47
e 17 49
e 17 50
e 18 21
e 18 36
e 18 40
e 18 42
e 18 43
e 18 51
e 19 22
e 19 33
e 19 37
e 21 28
e 21 32
e 21 36
e 21 40
e 21 42
e 21 43
e 21 44
e 21 47
e 22 33
e 22 37
e 24 27
e 24 28
e 24 29
e 24 34
e 24 35
e 24 38
e 24 39
e 24 44
e 24 45
e 24 46
e 24 49
e 24 50
e 25 30
e 25 31
e 25 48
e 26 42
e 26 51
e 27 29
e 27 31
e 27 34
e 27 38
e 27 39
e 27 45
e 27 46
e 27 48
e 27 49
e 28 32
e 28 39
e 28 40
e 28 43
e 28 44
e 28 47
e 29 34
e 29 38
e 29 39
e 29 45
e 29 46
e 30 31
e 30 46
e 30 48
e 31 34
e 31 35
e 31 38
e 31 46
e 31 48
e 31 49
e 32 36
e 32 39
e 32 40
e 32 43
e 32 44
e 32 47
e 33 37
e 33 51
e 34 35
e 34 38
e 34 46
e 34 49
e 34 50
e 35 38
e 35 41
e 35 49
e 35 50
e 36 40
e 36 42
e 36 43
e 36 47
e 37 51
e 38 39
e 38 45
e 38 46
e 38 49
e 38 50
e 39 43
e 39 44
e 39 47
e 40 43
e 40 44
e 40 47
e 41 49
e 41 50
e 43 44
e 43 47
e 44 47
e 45 46
e 45 48
e 46 48
e 46 49
e 49 50
